% demand
num_movements = 23;
loading_factor = [1600, 800, 1550, 2000, 1000, 1300, 1250, 1500, 1950, 2000, 1050, 1750, 1550, 1450, 1500, 1400, 1850, 950, 1600, 1600, 950, 1650, 1000];
pickup_time = [0, 0, 0, 0, 0, 0, 0, 0, 1, 2, 2, 2, 2, 2, 4, 5, 5, 5, 5, 5, 5, 5, 5];
delivery_time = [1, 2, 1, 1, 1, 1, 5, 1, 5, 4, 5, 5, 5, 3, 5, 6, 6, 6, 6, 6, 6, 6, 6];

% transporter definition
total_capacity = 11000;
num_decks = 4;
capacity = [3000, 3000, 1000, 4000];

% ways out of decks
num_ways_out = 2;
paths_out = array3d(decks, ways_out, decks, [
% ways out of deck d1
2, 4, 0, 0, 3, 4, 0, 0, 

% ways out of deck d2
4, 0, 0, 0, 0, 0, 0, 0,	

% ways out of deck d3
4, 0, 0, 0, 0, 0, 0, 0,	

% ways out of deck d4
0, 0, 0, 0,	0, 0, 0, 0,	

]);

